; benchmark generated from python API
(set-info :status unknown)
(declare-fun x_epoch () Int)
(declare-fun x_plus_epoch () Int)
(declare-fun x_plus_month () Int)
(declare-fun x_plus_year () Int)
(declare-fun x_plus_day () Int)
(declare-fun x_plus_1_epoch () Int)
(assert
 (>= x_epoch (- 36584)))
(assert
 (<= x_epoch 36829))
(assert
 (>= x_epoch 7214))
(assert
 (<= x_epoch 7304))
(assert
 (>= x_plus_epoch (- 36584)))
(assert
 (<= x_plus_epoch 36829))
(assert
 (let (($x126 (= x_plus_month 11)))
 (let (($x647 (= x_plus_month 9)))
 (let (($x601 (= x_plus_month 6)))
 (let (($x68 (= x_plus_month 4)))
 (let ((?x57 (ite (or $x68 $x601 $x647 $x126) 30 31)))
 (let (($x770 (= (mod x_plus_year 400) 0)))
 (let (($x1963 (= (mod x_plus_year 4) 0)))
 (let (($x292 (or (and $x1963 (and (distinct (mod x_plus_year 100) 0) true)) $x770)))
 (let (($x1920 (= x_plus_month 2)))
 (let (($x312 (>= x_plus_day 1)))
 (let (($x645 (<= x_plus_month 12)))
 (let (($x262 (>= x_plus_month 1)))
 (let (($x259 (<= x_plus_year 2100)))
 (let (($x705 (>= x_plus_year 1900)))
 (and $x705 $x259 $x262 $x645 $x312 (<= x_plus_day (ite $x1920 (ite $x292 29 28) ?x57))))))))))))))))))
(assert
 (let (($x770 (= (mod x_plus_year 400) 0)))
 (let (($x1963 (= (mod x_plus_year 4) 0)))
 (let (($x292 (or (and $x1963 (and (distinct (mod x_plus_year 100) 0) true)) $x770)))
 (let ((?x746 (ite (= 2 x_plus_month) (ite $x292 31 31) (ite (= 1 x_plus_month) (ite $x292 0 0) 0))))
 (let ((?x512 (ite (= 4 x_plus_month) (ite $x292 91 90) (ite (= 3 x_plus_month) (ite $x292 60 59) ?x746))))
 (let ((?x376 (ite (= 6 x_plus_month) (ite $x292 152 151) (ite (= 5 x_plus_month) (ite $x292 121 120) ?x512))))
 (let ((?x167 (ite (= 8 x_plus_month) (ite $x292 213 212) (ite (= 7 x_plus_month) (ite $x292 182 181) ?x376))))
 (let ((?x639 (ite (= 10 x_plus_month) (ite $x292 274 273) (ite (= 9 x_plus_month) (ite $x292 244 243) ?x167))))
 (let ((?x278 (ite (= 12 x_plus_month) (ite $x292 335 334) (ite (= 11 x_plus_month) (ite $x292 305 304) ?x639))))
 (let ((?x553 (+ (* 365 (- x_plus_year 1)) (div (- x_plus_year 1) 4))))
 (let ((?x411 (+ (- ?x553 (div (- x_plus_year 1) 100)) (div (- x_plus_year 1) 400))))
 (= x_plus_epoch (- (+ (+ ?x411 ?x278) (- x_plus_day 1)) 730179))))))))))))))
(assert
 (let ((?x641 (+ x_epoch 730179)))
 (let ((?x3127 (mod ?x641 146097)))
 (let ((?x3123 (div ?x3127 36524)))
 (let ((?x479 (ite (<= 4 ?x3123) 3 ?x3123)))
 (let ((?x652 (- ?x3127 (* ?x479 36524))))
 (let ((?x494 (mod ?x652 1461)))
 (let ((?x16 (div ?x494 365)))
 (let ((?x430 (ite (<= 4 ?x16) 3 ?x16)))
 (let ((?x1041 (+ (+ (* (div ?x641 146097) 400) (* ?x479 100)) (* (div ?x652 1461) 4))))
 (let ((?x457 (+ (+ ?x1041 ?x430) 1)))
 (let (($x2625 (or (and (= (mod ?x457 4) 0) (and (distinct (mod ?x457 100) 0) true)) (= (mod ?x457 400) 0))))
 (let ((?x2550 (- ?x494 (* ?x430 365))))
 (let ((?x2676 (ite $x2625 31 31)))
 (let (($x492 (>= ?x2550 ?x2676)))
 (let ((?x3234 (ite $x492 (+ (- ?x2550 ?x2676) 1) (+ (- ?x2550 (ite $x2625 0 0)) 1))))
 (let ((?x561 (ite $x2625 60 59)))
 (let (($x2522 (>= ?x2550 ?x561)))
 (let ((?x55 (ite $x2625 91 90)))
 (let (($x1017 (>= ?x2550 ?x55)))
 (let ((?x599 (ite $x1017 (+ (- ?x2550 ?x55) 1) (ite $x2522 (+ (- ?x2550 ?x561) 1) ?x3234))))
 (let ((?x222 (ite $x2625 121 120)))
 (let (($x28 (>= ?x2550 ?x222)))
 (let ((?x3273 (ite $x2625 152 151)))
 (let (($x1943 (>= ?x2550 ?x3273)))
 (let ((?x1910 (ite $x1943 (+ (- ?x2550 ?x3273) 1) (ite $x28 (+ (- ?x2550 ?x222) 1) ?x599))))
 (let ((?x3294 (ite $x2625 182 181)))
 (let (($x1125 (>= ?x2550 ?x3294)))
 (let ((?x2731 (ite $x2625 213 212)))
 (let (($x2525 (>= ?x2550 ?x2731)))
 (let ((?x888 (ite $x2525 (+ (- ?x2550 ?x2731) 1) (ite $x1125 (+ (- ?x2550 ?x3294) 1) ?x1910))))
 (let ((?x235 (ite $x2625 244 243)))
 (let (($x1471 (>= ?x2550 ?x235)))
 (let ((?x1414 (ite $x2625 274 273)))
 (let (($x2958 (>= ?x2550 ?x1414)))
 (let ((?x679 (ite $x2958 (+ (- ?x2550 ?x1414) 1) (ite $x1471 (+ (- ?x2550 ?x235) 1) ?x888))))
 (let ((?x1446 (ite $x2625 305 304)))
 (let (($x1110 (>= ?x2550 ?x1446)))
 (let ((?x2706 (ite $x2625 335 334)))
 (let (($x44 (>= ?x2550 ?x2706)))
 (let ((?x537 (ite $x44 (+ (- ?x2550 ?x2706) 1) (ite $x1110 (+ (- ?x2550 ?x1446) 1) ?x679))))
 (let ((?x2064 (+ (* 1 12) 0)))
 (let ((?x371 (ite $x28 5 (ite $x1017 4 (ite $x2522 3 (ite $x492 2 1))))))
 (let ((?x1000 (ite $x1471 9 (ite $x2525 8 (ite $x1125 7 (ite $x1943 6 ?x371))))))
 (let ((?x410 (ite $x44 12 (ite $x1110 11 (ite $x2958 10 ?x1000)))))
 (let ((?x2337 (+ ?x410 ?x2064)))
 (let ((?x2770 (- ?x2337 1)))
 (let ((?x3122 (+ (mod ?x2770 12) 1)))
 (let ((?x2491 (ite (or (= ?x3122 4) (= ?x3122 6) (= ?x3122 9) (= ?x3122 11)) 30 31)))
 (let (($x2420 (and (= (mod (+ ?x457 (+ 0 (div ?x2770 12))) 4) 0) (and (distinct (mod (+ ?x457 (+ 0 (div ?x2770 12))) 100) 0) true))))
 (let (($x1346 (or $x2420 (= (mod (+ ?x457 (+ 0 (div ?x2770 12))) 400) 0))))
 (let ((?x94 (ite (= ?x3122 2) (ite $x1346 29 28) ?x2491)))
 (let ((?x1430 (ite (> 1 ?x537) 1 (ite (> ?x537 ?x94) ?x94 ?x537))))
 (let ((?x184 (ite (> 1 ?x1430) 1 (ite (> ?x1430 ?x94) ?x94 ?x1430))))
 (let ((?x2867 (ite (= 2 ?x3122) (ite $x1346 31 31) (ite (= 1 ?x3122) (ite $x1346 0 0) 0))))
 (let ((?x710 (ite (= 4 ?x3122) (ite $x1346 91 90) (ite (= 3 ?x3122) (ite $x1346 60 59) ?x2867))))
 (let ((?x2521 (ite (= 6 ?x3122) (ite $x1346 152 151) (ite (= 5 ?x3122) (ite $x1346 121 120) ?x710))))
 (let ((?x1373 (ite (= 8 ?x3122) (ite $x1346 213 212) (ite (= 7 ?x3122) (ite $x1346 182 181) ?x2521))))
 (let ((?x2236 (ite (= 10 ?x3122) (ite $x1346 274 273) (ite (= 9 ?x3122) (ite $x1346 244 243) ?x1373))))
 (let ((?x695 (ite (= 12 ?x3122) (ite $x1346 335 334) (ite (= 11 ?x3122) (ite $x1346 305 304) ?x2236))))
 (let ((?x1507 (+ (* 365 (- (+ ?x457 (+ 0 (div ?x2770 12))) 1)) (div (- (+ ?x457 (+ 0 (div ?x2770 12))) 1) 4))))
 (let ((?x2034 (+ (- ?x1507 (div (- (+ ?x457 (+ 0 (div ?x2770 12))) 1) 100)) (div (- (+ ?x457 (+ 0 (div ?x2770 12))) 1) 400))))
 (let ((?x9 (+ (+ (- (+ (+ ?x2034 ?x695) (- ?x184 1)) 730179) 0) 730179)))
 (let ((?x1703 (mod ?x9 146097)))
 (let ((?x480 (div ?x1703 36524)))
 (let ((?x713 (ite (<= 4 ?x480) 3 ?x480)))
 (let ((?x1299 (- ?x1703 (* ?x713 36524))))
 (let ((?x504 (mod ?x1299 1461)))
 (let ((?x1301 (div ?x504 365)))
 (let ((?x859 (ite (<= 4 ?x1301) 3 ?x1301)))
 (let ((?x3101 (+ (+ (* (div ?x9 146097) 400) (* ?x713 100)) (* (div ?x1299 1461) 4))))
 (let ((?x287 (+ (+ ?x3101 ?x859) 1)))
 (let ((?x1860 (+ 0 (div ?x2770 12))))
 (let ((?x786 (+ ?x457 ?x1860)))
 (let (($x2351 (= 0 0)))
 (let ((?x128 (ite $x2351 ?x786 ?x287)))
 (= x_plus_year ?x128)))))))))))))))))))))))))))))))))))))))))))))))))))))))))))))))))))))))))))))
(assert
 (let ((?x641 (+ x_epoch 730179)))
 (let ((?x3127 (mod ?x641 146097)))
 (let ((?x3123 (div ?x3127 36524)))
 (let ((?x479 (ite (<= 4 ?x3123) 3 ?x3123)))
 (let ((?x652 (- ?x3127 (* ?x479 36524))))
 (let ((?x494 (mod ?x652 1461)))
 (let ((?x16 (div ?x494 365)))
 (let ((?x430 (ite (<= 4 ?x16) 3 ?x16)))
 (let ((?x1041 (+ (+ (* (div ?x641 146097) 400) (* ?x479 100)) (* (div ?x652 1461) 4))))
 (let ((?x457 (+ (+ ?x1041 ?x430) 1)))
 (let (($x2625 (or (and (= (mod ?x457 4) 0) (and (distinct (mod ?x457 100) 0) true)) (= (mod ?x457 400) 0))))
 (let ((?x2550 (- ?x494 (* ?x430 365))))
 (let ((?x2676 (ite $x2625 31 31)))
 (let (($x492 (>= ?x2550 ?x2676)))
 (let ((?x3234 (ite $x492 (+ (- ?x2550 ?x2676) 1) (+ (- ?x2550 (ite $x2625 0 0)) 1))))
 (let ((?x561 (ite $x2625 60 59)))
 (let (($x2522 (>= ?x2550 ?x561)))
 (let ((?x55 (ite $x2625 91 90)))
 (let (($x1017 (>= ?x2550 ?x55)))
 (let ((?x599 (ite $x1017 (+ (- ?x2550 ?x55) 1) (ite $x2522 (+ (- ?x2550 ?x561) 1) ?x3234))))
 (let ((?x222 (ite $x2625 121 120)))
 (let (($x28 (>= ?x2550 ?x222)))
 (let ((?x3273 (ite $x2625 152 151)))
 (let (($x1943 (>= ?x2550 ?x3273)))
 (let ((?x1910 (ite $x1943 (+ (- ?x2550 ?x3273) 1) (ite $x28 (+ (- ?x2550 ?x222) 1) ?x599))))
 (let ((?x3294 (ite $x2625 182 181)))
 (let (($x1125 (>= ?x2550 ?x3294)))
 (let ((?x2731 (ite $x2625 213 212)))
 (let (($x2525 (>= ?x2550 ?x2731)))
 (let ((?x888 (ite $x2525 (+ (- ?x2550 ?x2731) 1) (ite $x1125 (+ (- ?x2550 ?x3294) 1) ?x1910))))
 (let ((?x235 (ite $x2625 244 243)))
 (let (($x1471 (>= ?x2550 ?x235)))
 (let ((?x1414 (ite $x2625 274 273)))
 (let (($x2958 (>= ?x2550 ?x1414)))
 (let ((?x679 (ite $x2958 (+ (- ?x2550 ?x1414) 1) (ite $x1471 (+ (- ?x2550 ?x235) 1) ?x888))))
 (let ((?x1446 (ite $x2625 305 304)))
 (let (($x1110 (>= ?x2550 ?x1446)))
 (let ((?x2706 (ite $x2625 335 334)))
 (let (($x44 (>= ?x2550 ?x2706)))
 (let ((?x537 (ite $x44 (+ (- ?x2550 ?x2706) 1) (ite $x1110 (+ (- ?x2550 ?x1446) 1) ?x679))))
 (let ((?x2064 (+ (* 1 12) 0)))
 (let ((?x371 (ite $x28 5 (ite $x1017 4 (ite $x2522 3 (ite $x492 2 1))))))
 (let ((?x1000 (ite $x1471 9 (ite $x2525 8 (ite $x1125 7 (ite $x1943 6 ?x371))))))
 (let ((?x410 (ite $x44 12 (ite $x1110 11 (ite $x2958 10 ?x1000)))))
 (let ((?x2337 (+ ?x410 ?x2064)))
 (let ((?x2770 (- ?x2337 1)))
 (let ((?x3122 (+ (mod ?x2770 12) 1)))
 (let ((?x2491 (ite (or (= ?x3122 4) (= ?x3122 6) (= ?x3122 9) (= ?x3122 11)) 30 31)))
 (let (($x2420 (and (= (mod (+ ?x457 (+ 0 (div ?x2770 12))) 4) 0) (and (distinct (mod (+ ?x457 (+ 0 (div ?x2770 12))) 100) 0) true))))
 (let (($x1346 (or $x2420 (= (mod (+ ?x457 (+ 0 (div ?x2770 12))) 400) 0))))
 (let ((?x94 (ite (= ?x3122 2) (ite $x1346 29 28) ?x2491)))
 (let ((?x1430 (ite (> 1 ?x537) 1 (ite (> ?x537 ?x94) ?x94 ?x537))))
 (let ((?x184 (ite (> 1 ?x1430) 1 (ite (> ?x1430 ?x94) ?x94 ?x1430))))
 (let ((?x2867 (ite (= 2 ?x3122) (ite $x1346 31 31) (ite (= 1 ?x3122) (ite $x1346 0 0) 0))))
 (let ((?x710 (ite (= 4 ?x3122) (ite $x1346 91 90) (ite (= 3 ?x3122) (ite $x1346 60 59) ?x2867))))
 (let ((?x2521 (ite (= 6 ?x3122) (ite $x1346 152 151) (ite (= 5 ?x3122) (ite $x1346 121 120) ?x710))))
 (let ((?x1373 (ite (= 8 ?x3122) (ite $x1346 213 212) (ite (= 7 ?x3122) (ite $x1346 182 181) ?x2521))))
 (let ((?x2236 (ite (= 10 ?x3122) (ite $x1346 274 273) (ite (= 9 ?x3122) (ite $x1346 244 243) ?x1373))))
 (let ((?x695 (ite (= 12 ?x3122) (ite $x1346 335 334) (ite (= 11 ?x3122) (ite $x1346 305 304) ?x2236))))
 (let ((?x1507 (+ (* 365 (- (+ ?x457 (+ 0 (div ?x2770 12))) 1)) (div (- (+ ?x457 (+ 0 (div ?x2770 12))) 1) 4))))
 (let ((?x2034 (+ (- ?x1507 (div (- (+ ?x457 (+ 0 (div ?x2770 12))) 1) 100)) (div (- (+ ?x457 (+ 0 (div ?x2770 12))) 1) 400))))
 (let ((?x9 (+ (+ (- (+ (+ ?x2034 ?x695) (- ?x184 1)) 730179) 0) 730179)))
 (let ((?x1703 (mod ?x9 146097)))
 (let ((?x480 (div ?x1703 36524)))
 (let ((?x713 (ite (<= 4 ?x480) 3 ?x480)))
 (let ((?x1299 (- ?x1703 (* ?x713 36524))))
 (let ((?x504 (mod ?x1299 1461)))
 (let ((?x1301 (div ?x504 365)))
 (let ((?x859 (ite (<= 4 ?x1301) 3 ?x1301)))
 (let ((?x3101 (+ (+ (* (div ?x9 146097) 400) (* ?x713 100)) (* (div ?x1299 1461) 4))))
 (let ((?x287 (+ (+ ?x3101 ?x859) 1)))
 (let (($x1222 (or (and (= (mod ?x287 4) 0) (and (distinct (mod ?x287 100) 0) true)) (= (mod ?x287 400) 0))))
 (let ((?x1209 (ite $x1222 31 31)))
 (let ((?x2529 (- ?x504 (* ?x859 365))))
 (let (($x1191 (>= ?x2529 ?x1209)))
 (let ((?x3237 (ite $x1222 60 59)))
 (let (($x872 (>= ?x2529 ?x3237)))
 (let ((?x821 (ite $x1222 91 90)))
 (let (($x2355 (>= ?x2529 ?x821)))
 (let ((?x3265 (ite $x1222 121 120)))
 (let (($x263 (>= ?x2529 ?x3265)))
 (let ((?x404 (ite $x263 5 (ite $x2355 4 (ite $x872 3 (ite $x1191 2 1))))))
 (let ((?x251 (ite $x1222 152 151)))
 (let (($x1064 (>= ?x2529 ?x251)))
 (let ((?x1738 (ite $x1222 182 181)))
 (let (($x264 (>= ?x2529 ?x1738)))
 (let ((?x2977 (ite $x1222 213 212)))
 (let (($x747 (>= ?x2529 ?x2977)))
 (let ((?x2874 (ite $x1222 244 243)))
 (let (($x122 (>= ?x2529 ?x2874)))
 (let ((?x2184 (ite $x122 9 (ite $x747 8 (ite $x264 7 (ite $x1064 6 ?x404))))))
 (let ((?x2242 (ite $x1222 274 273)))
 (let (($x86 (>= ?x2529 ?x2242)))
 (let ((?x325 (ite $x1222 305 304)))
 (let (($x613 (>= ?x2529 ?x325)))
 (let ((?x1837 (ite $x1222 335 334)))
 (let (($x17 (>= ?x2529 ?x1837)))
 (let (($x2351 (= 0 0)))
 (let ((?x1461 (ite $x2351 ?x3122 (ite $x17 12 (ite $x613 11 (ite $x86 10 ?x2184))))))
 (= x_plus_month ?x1461)))))))))))))))))))))))))))))))))))))))))))))))))))))))))))))))))))))))))))))))))))))))))))))))))))))
(assert
 (let ((?x641 (+ x_epoch 730179)))
 (let ((?x3127 (mod ?x641 146097)))
 (let ((?x3123 (div ?x3127 36524)))
 (let ((?x479 (ite (<= 4 ?x3123) 3 ?x3123)))
 (let ((?x652 (- ?x3127 (* ?x479 36524))))
 (let ((?x494 (mod ?x652 1461)))
 (let ((?x16 (div ?x494 365)))
 (let ((?x430 (ite (<= 4 ?x16) 3 ?x16)))
 (let ((?x1041 (+ (+ (* (div ?x641 146097) 400) (* ?x479 100)) (* (div ?x652 1461) 4))))
 (let ((?x457 (+ (+ ?x1041 ?x430) 1)))
 (let (($x2625 (or (and (= (mod ?x457 4) 0) (and (distinct (mod ?x457 100) 0) true)) (= (mod ?x457 400) 0))))
 (let ((?x2550 (- ?x494 (* ?x430 365))))
 (let ((?x2676 (ite $x2625 31 31)))
 (let (($x492 (>= ?x2550 ?x2676)))
 (let ((?x3234 (ite $x492 (+ (- ?x2550 ?x2676) 1) (+ (- ?x2550 (ite $x2625 0 0)) 1))))
 (let ((?x561 (ite $x2625 60 59)))
 (let (($x2522 (>= ?x2550 ?x561)))
 (let ((?x55 (ite $x2625 91 90)))
 (let (($x1017 (>= ?x2550 ?x55)))
 (let ((?x599 (ite $x1017 (+ (- ?x2550 ?x55) 1) (ite $x2522 (+ (- ?x2550 ?x561) 1) ?x3234))))
 (let ((?x222 (ite $x2625 121 120)))
 (let (($x28 (>= ?x2550 ?x222)))
 (let ((?x3273 (ite $x2625 152 151)))
 (let (($x1943 (>= ?x2550 ?x3273)))
 (let ((?x1910 (ite $x1943 (+ (- ?x2550 ?x3273) 1) (ite $x28 (+ (- ?x2550 ?x222) 1) ?x599))))
 (let ((?x3294 (ite $x2625 182 181)))
 (let (($x1125 (>= ?x2550 ?x3294)))
 (let ((?x2731 (ite $x2625 213 212)))
 (let (($x2525 (>= ?x2550 ?x2731)))
 (let ((?x888 (ite $x2525 (+ (- ?x2550 ?x2731) 1) (ite $x1125 (+ (- ?x2550 ?x3294) 1) ?x1910))))
 (let ((?x235 (ite $x2625 244 243)))
 (let (($x1471 (>= ?x2550 ?x235)))
 (let ((?x1414 (ite $x2625 274 273)))
 (let (($x2958 (>= ?x2550 ?x1414)))
 (let ((?x679 (ite $x2958 (+ (- ?x2550 ?x1414) 1) (ite $x1471 (+ (- ?x2550 ?x235) 1) ?x888))))
 (let ((?x1446 (ite $x2625 305 304)))
 (let (($x1110 (>= ?x2550 ?x1446)))
 (let ((?x2706 (ite $x2625 335 334)))
 (let (($x44 (>= ?x2550 ?x2706)))
 (let ((?x537 (ite $x44 (+ (- ?x2550 ?x2706) 1) (ite $x1110 (+ (- ?x2550 ?x1446) 1) ?x679))))
 (let ((?x2064 (+ (* 1 12) 0)))
 (let ((?x371 (ite $x28 5 (ite $x1017 4 (ite $x2522 3 (ite $x492 2 1))))))
 (let ((?x1000 (ite $x1471 9 (ite $x2525 8 (ite $x1125 7 (ite $x1943 6 ?x371))))))
 (let ((?x410 (ite $x44 12 (ite $x1110 11 (ite $x2958 10 ?x1000)))))
 (let ((?x2337 (+ ?x410 ?x2064)))
 (let ((?x2770 (- ?x2337 1)))
 (let ((?x3122 (+ (mod ?x2770 12) 1)))
 (let ((?x2491 (ite (or (= ?x3122 4) (= ?x3122 6) (= ?x3122 9) (= ?x3122 11)) 30 31)))
 (let (($x2420 (and (= (mod (+ ?x457 (+ 0 (div ?x2770 12))) 4) 0) (and (distinct (mod (+ ?x457 (+ 0 (div ?x2770 12))) 100) 0) true))))
 (let (($x1346 (or $x2420 (= (mod (+ ?x457 (+ 0 (div ?x2770 12))) 400) 0))))
 (let ((?x94 (ite (= ?x3122 2) (ite $x1346 29 28) ?x2491)))
 (let ((?x1430 (ite (> 1 ?x537) 1 (ite (> ?x537 ?x94) ?x94 ?x537))))
 (let ((?x184 (ite (> 1 ?x1430) 1 (ite (> ?x1430 ?x94) ?x94 ?x1430))))
 (let ((?x2867 (ite (= 2 ?x3122) (ite $x1346 31 31) (ite (= 1 ?x3122) (ite $x1346 0 0) 0))))
 (let ((?x710 (ite (= 4 ?x3122) (ite $x1346 91 90) (ite (= 3 ?x3122) (ite $x1346 60 59) ?x2867))))
 (let ((?x2521 (ite (= 6 ?x3122) (ite $x1346 152 151) (ite (= 5 ?x3122) (ite $x1346 121 120) ?x710))))
 (let ((?x1373 (ite (= 8 ?x3122) (ite $x1346 213 212) (ite (= 7 ?x3122) (ite $x1346 182 181) ?x2521))))
 (let ((?x2236 (ite (= 10 ?x3122) (ite $x1346 274 273) (ite (= 9 ?x3122) (ite $x1346 244 243) ?x1373))))
 (let ((?x695 (ite (= 12 ?x3122) (ite $x1346 335 334) (ite (= 11 ?x3122) (ite $x1346 305 304) ?x2236))))
 (let ((?x1507 (+ (* 365 (- (+ ?x457 (+ 0 (div ?x2770 12))) 1)) (div (- (+ ?x457 (+ 0 (div ?x2770 12))) 1) 4))))
 (let ((?x2034 (+ (- ?x1507 (div (- (+ ?x457 (+ 0 (div ?x2770 12))) 1) 100)) (div (- (+ ?x457 (+ 0 (div ?x2770 12))) 1) 400))))
 (let ((?x9 (+ (+ (- (+ (+ ?x2034 ?x695) (- ?x184 1)) 730179) 0) 730179)))
 (let ((?x1703 (mod ?x9 146097)))
 (let ((?x480 (div ?x1703 36524)))
 (let ((?x713 (ite (<= 4 ?x480) 3 ?x480)))
 (let ((?x1299 (- ?x1703 (* ?x713 36524))))
 (let ((?x504 (mod ?x1299 1461)))
 (let ((?x1301 (div ?x504 365)))
 (let ((?x859 (ite (<= 4 ?x1301) 3 ?x1301)))
 (let ((?x3101 (+ (+ (* (div ?x9 146097) 400) (* ?x713 100)) (* (div ?x1299 1461) 4))))
 (let ((?x287 (+ (+ ?x3101 ?x859) 1)))
 (let (($x1222 (or (and (= (mod ?x287 4) 0) (and (distinct (mod ?x287 100) 0) true)) (= (mod ?x287 400) 0))))
 (let ((?x2529 (- ?x504 (* ?x859 365))))
 (let ((?x1209 (ite $x1222 31 31)))
 (let (($x1191 (>= ?x2529 ?x1209)))
 (let ((?x2046 (ite $x1191 (+ (- ?x2529 ?x1209) 1) (+ (- ?x2529 (ite $x1222 0 0)) 1))))
 (let ((?x3237 (ite $x1222 60 59)))
 (let (($x872 (>= ?x2529 ?x3237)))
 (let ((?x821 (ite $x1222 91 90)))
 (let (($x2355 (>= ?x2529 ?x821)))
 (let ((?x515 (ite $x2355 (+ (- ?x2529 ?x821) 1) (ite $x872 (+ (- ?x2529 ?x3237) 1) ?x2046))))
 (let ((?x3265 (ite $x1222 121 120)))
 (let (($x263 (>= ?x2529 ?x3265)))
 (let ((?x251 (ite $x1222 152 151)))
 (let (($x1064 (>= ?x2529 ?x251)))
 (let ((?x748 (ite $x1064 (+ (- ?x2529 ?x251) 1) (ite $x263 (+ (- ?x2529 ?x3265) 1) ?x515))))
 (let ((?x1738 (ite $x1222 182 181)))
 (let (($x264 (>= ?x2529 ?x1738)))
 (let ((?x2977 (ite $x1222 213 212)))
 (let (($x747 (>= ?x2529 ?x2977)))
 (let ((?x1520 (ite $x747 (+ (- ?x2529 ?x2977) 1) (ite $x264 (+ (- ?x2529 ?x1738) 1) ?x748))))
 (let ((?x2874 (ite $x1222 244 243)))
 (let (($x122 (>= ?x2529 ?x2874)))
 (let ((?x2242 (ite $x1222 274 273)))
 (let (($x86 (>= ?x2529 ?x2242)))
 (let ((?x636 (ite $x86 (+ (- ?x2529 ?x2242) 1) (ite $x122 (+ (- ?x2529 ?x2874) 1) ?x1520))))
 (let ((?x325 (ite $x1222 305 304)))
 (let (($x613 (>= ?x2529 ?x325)))
 (let ((?x1837 (ite $x1222 335 334)))
 (let (($x17 (>= ?x2529 ?x1837)))
 (let ((?x767 (ite $x17 (+ (- ?x2529 ?x1837) 1) (ite $x613 (+ (- ?x2529 ?x325) 1) ?x636))))
 (let (($x2351 (= 0 0)))
 (let ((?x3140 (ite $x2351 ?x184 ?x767)))
 (= x_plus_day ?x3140)))))))))))))))))))))))))))))))))))))))))))))))))))))))))))))))))))))))))))))))))))))))))))))))))))))))))
(assert
 (>= x_plus_1_epoch (- 36584)))
(assert
 (<= x_plus_1_epoch 36829))
(assert
 (= x_plus_1_epoch (+ x_epoch 366)))
(assert
 (not (= x_plus_epoch x_plus_1_epoch)))
(check-sat)
